p cnf 83 283
1 2 3 4 5 6 7 8 9 0
37 38 39 40 41 42 43 44 0
45 46 47 48 49 50 0
51 52 53 54 55 56 57 0
58 59 60 61 62 63 64 65 66 67 0
-1 -10 0
-1 -19 0
-1 -28 0
-1 -37 0
-1 -51 0
-1 -58 0
-1 -68 0
-10 -19 0
-10 -28 0
-10 -37 0
-10 -51 0
-10 -58 0
-10 -68 0
-19 -28 0
-19 -37 0
-19 -51 0
-19 -58 0
-19 -68 0
-28 -37 0
-28 -51 0
-28 -58 0
-28 -68 0
-37 -51 0
-37 -58 0
-37 -68 0
-51 -58 0
-51 -68 0
-58 -68 0
-2 -11 0
-2 -20 0
-2 -29 0
-2 -45 0
-2 -52 0
-2 -59 0
-2 -69 0
-2 -77 0
-11 -20 0
-11 -29 0
-11 -45 0
-11 -52 0
-11 -59 0
-11 -69 0
-11 -77 0
-20 -29 0
-20 -45 0
-20 -52 0
-20 -59 0
-20 -69 0
-20 -77 0
-29 -45 0
-29 -52 0
-29 -59 0
-29 -69 0
-29 -77 0
-45 -52 0
-45 -59 0
-45 -69 0
-45 -77 0
-52 -59 0
-52 -69 0
-52 -77 0
-59 -69 0
-59 -77 0
-69 -77 0
-3 -12 0
-3 -21 0
-3 -53 0
-3 -60 0
-3 -70 0
-3 -78 0
-12 -21 0
-12 -53 0
-12 -60 0
-12 -70 0
-12 -78 0
-21 -53 0
-21 -60 0
-21 -70 0
-21 -78 0
-53 -60 0
-53 -70 0
-53 -78 0
-60 -70 0
-60 -78 0
-70 -78 0
-4 -13 0
-4 -22 0
-4 -30 0
-4 -38 0
-4 -46 0
-4 -54 0
-4 -61 0
-4 -71 0
-13 -22 0
-13 -30 0
-13 -38 0
-13 -46 0
-13 -54 0
-13 -61 0
-13 -71 0
-22 -30 0
-22 -38 0
-22 -46 0
-22 -54 0
-22 -61 0
-22 -71 0
-30 -38 0
-30 -46 0
-30 -54 0
-30 -61 0
-30 -71 0
-38 -46 0
-38 -54 0
-38 -61 0
-38 -71 0
-46 -54 0
-46 -61 0
-46 -71 0
-54 -61 0
-54 -71 0
-61 -71 0
-14 -31 0
-14 -39 0
-14 -55 0
-14 -72 0
-14 -79 0
-31 -39 0
-31 -55 0
-31 -72 0
-31 -79 0
-39 -55 0
-39 -72 0
-39 -79 0
-55 -72 0
-55 -79 0
-72 -79 0
-5 -15 0
-5 -23 0
-5 -32 0
-5 -47 0
-5 -56 0
-5 -62 0
-15 -23 0
-15 -32 0
-15 -47 0
-15 -56 0
-15 -62 0
-23 -32 0
-23 -47 0
-23 -56 0
-23 -62 0
-32 -47 0
-32 -56 0
-32 -62 0
-47 -56 0
-47 -62 0
-56 -62 0
-6 -24 0
-6 -33 0
-6 -40 0
-6 -48 0
-6 -63 0
-6 -73 0
-24 -33 0
-24 -40 0
-24 -48 0
-24 -63 0
-24 -73 0
-33 -40 0
-33 -48 0
-33 -63 0
-33 -73 0
-40 -48 0
-40 -63 0
-40 -73 0
-48 -63 0
-48 -73 0
-63 -73 0
-7 -16 0
-7 -25 0
-7 -34 0
-7 -41 0
-7 -64 0
-7 -74 0
-7 -80 0
-16 -25 0
-16 -34 0
-16 -41 0
-16 -64 0
-16 -74 0
-16 -80 0
-25 -34 0
-25 -41 0
-25 -64 0
-25 -74 0
-25 -80 0
-34 -41 0
-34 -64 0
-34 -74 0
-34 -80 0
-41 -64 0
-41 -74 0
-41 -80 0
-64 -74 0
-64 -80 0
-74 -80 0
-8 -26 0
-8 -35 0
-8 -42 0
-8 -49 0
-8 -57 0
-8 -65 0
-8 -75 0
-8 -81 0
-26 -35 0
-26 -42 0
-26 -49 0
-26 -57 0
-26 -65 0
-26 -75 0
-26 -81 0
-35 -42 0
-35 -49 0
-35 -57 0
-35 -65 0
-35 -75 0
-35 -81 0
-42 -49 0
-42 -57 0
-42 -65 0
-42 -75 0
-42 -81 0
-49 -57 0
-49 -65 0
-49 -75 0
-49 -81 0
-57 -65 0
-57 -75 0
-57 -81 0
-65 -75 0
-65 -81 0
-75 -81 0
-9 -17 0
-9 -27 0
-9 -43 0
-9 -66 0
-9 -76 0
-9 -82 0
-17 -27 0
-17 -43 0
-17 -66 0
-17 -76 0
-17 -82 0
-27 -43 0
-27 -66 0
-27 -76 0
-27 -82 0
-43 -66 0
-43 -76 0
-43 -82 0
-66 -76 0
-66 -82 0
-76 -82 0
-18 -36 0
-18 -44 0
-18 -50 0
-18 -67 0
-18 -83 0
-36 -44 0
-36 -50 0
-36 -67 0
-36 -83 0
-44 -50 0
-44 -67 0
-44 -83 0
-50 -67 0
-50 -83 0
-67 -83 0
